NAME: instance_2171
TYPE: TSP
DIMENSION: 20
EDGE_WEIGHT_TYPE: EUC_2D
NODE_COORD_SECTION
0 32.37 48.93
1 88.63 82.66
2 89.97 54.84
3 38.03 67.74
4 85.49 95.43
5 59.98 48.99
6 80.08 84.03
7 93.64 84.08
8 60.90 42.06
9 1.37 8.41
10 16.03 58.85
11 56.62 39.93
12 19.39 47.94
13 46.06 6.80
14 56.96 66.34
15 45.85 65.68
16 37.20 49.30
17 57.02 89.74
18 14.35 26.82
19 74.95 48.63
EOF
